(set-logic QF_S)
(declare-fun var0 () String)
(assert (str.in.re var0 (re.++ (re.* (re.+ (str.to.re "00"))) (re.++ (re.* (re.+ (str.to.re "11"))) (re.++ (re.* (re.+ (str.to.re "2"))) (re.++ (re.* (re.union (str.to.re "33") (str.to.re "44"))) (re.++ (re.* (re.* (str.to.re "5"))) (re.++ (re.+ (re.union (str.to.re "6") (str.to.re "777"))) (re.++ (re.union (re.union (str.to.re "888") (str.to.re "999")) (re.union (str.to.re "aaa") (str.to.re "b"))) (re.++ (re.* (re.+ (str.to.re "cc"))) (re.++ (re.* (re.union (str.to.re "ddd") (str.to.re "eee"))) (re.++ (re.union (re.+ (str.to.re "ff")) (re.+ (str.to.re "gg"))) (re.++ (re.+ (re.* (str.to.re "hhh"))) (re.++ (re.* (re.union (str.to.re "iii") (str.to.re "jj"))) (re.++ (re.union (re.union (str.to.re "kk") (str.to.re "ll")) (re.union (str.to.re "mm") (str.to.re "nn"))) (re.++ (re.* (re.* (str.to.re "o"))) (re.++ (re.+ (re.union (str.to.re "ppp") (str.to.re "qqq"))) (re.++ (re.* (re.* (str.to.re "rr"))) (re.++ (re.union (re.union (str.to.re "sss") (str.to.re "t")) (re.union (str.to.re "u") (str.to.re "vv"))) (re.++ (re.+ (re.union (str.to.re "www") (str.to.re "xxx"))) (re.++ (re.* (re.union (str.to.re "yyy") (str.to.re "zz"))) (re.++ (re.+ (re.* (str.to.re "A"))) (re.++ (re.union (re.+ (str.to.re "BBB")) (re.+ (str.to.re "CC"))) (re.++ (re.union (re.* (str.to.re "DD")) (re.* (str.to.re "EE"))) (re.++ (re.+ (re.* (str.to.re "FFF"))) (re.++ (re.union (re.union (str.to.re "GG") (str.to.re "HH")) (re.union (str.to.re "III") (str.to.re "JJJ"))) (re.++ (re.* (re.+ (str.to.re "K"))) (re.++ (re.union (re.* (str.to.re "L")) (re.* (str.to.re "MM"))) (re.++ (re.+ (re.+ (str.to.re "N"))) (re.++ (re.+ (re.+ (str.to.re "O"))) (re.++ (re.* (re.+ (str.to.re "PPP"))) (re.++ (re.* (re.union (str.to.re "QQ") (str.to.re "RRR"))) (re.++ (re.+ (re.* (str.to.re "S"))) (re.++ (re.union (re.* (str.to.re "T")) (re.* (str.to.re "UUU"))) (re.++ (re.+ (re.+ (str.to.re "VV"))) (re.++ (re.union (re.union (str.to.re "W") (str.to.re "XX")) (re.union (str.to.re "YY") (str.to.re "Z"))) (re.++ (re.+ (re.+ (str.to.re "!"))) (re.++ (re.union (re.+ (str.to.re """")) (re.+ (str.to.re "###"))) (re.++ (re.* (re.union (str.to.re "$") (str.to.re "%%"))) (re.++ (re.union (re.union (str.to.re "&&") (str.to.re "''")) (re.union (str.to.re "(") (str.to.re ")))"))) (re.++ (re.union (re.+ (str.to.re "**")) (re.+ (str.to.re "+++"))) (re.++ (re.* (re.union (str.to.re ",,") (str.to.re "--"))) (re.++ (re.union (re.+ (str.to.re "..")) (re.+ (str.to.re "//"))) (re.++ (re.+ (re.union (str.to.re ":::") (str.to.re ";;"))) (re.++ (re.* (re.union (str.to.re "<") (str.to.re "=="))) (re.++ (re.* (re.union (str.to.re ">>>") (str.to.re "?"))) (re.++ (re.union (re.union (str.to.re "@@@") (str.to.re "[[")) (re.union (str.to.re "\\\\") (str.to.re "]]]"))) (re.++ (re.union (re.* (str.to.re "^^^")) (re.* (str.to.re "___"))) (re.++ (re.union (re.+ (str.to.re "`")) (re.+ (str.to.re "{{"))) (re.++ (re.* (re.* (str.to.re "||"))) (re.++ (re.union (re.* (str.to.re "}")) (re.* (str.to.re "~~~"))) (re.++ (re.+ (re.union (str.to.re "00") (str.to.re "11"))) (re.++ (re.+ (re.union (str.to.re "2") (str.to.re "33"))) (re.++ (re.* (re.+ (str.to.re "44"))) (re.++ (re.union (re.union (str.to.re "5") (str.to.re "6")) (re.union (str.to.re "7") (str.to.re "8"))) (re.++ (re.+ (re.+ (str.to.re "9"))) (re.++ (re.* (re.* (str.to.re "aaa"))) (re.++ (re.* (re.* (str.to.re "b"))) (re.++ (re.* (re.+ (str.to.re "ccc"))) (re.++ (re.+ (re.+ (str.to.re "d"))) (re.++ (re.+ (re.+ (str.to.re "e"))) (re.++ (re.* (re.union (str.to.re "ff") (str.to.re "ggg"))) (re.++ (re.union (re.union (str.to.re "hh") (str.to.re "ii")) (re.union (str.to.re "jjj") (str.to.re "kkk"))) (re.++ (re.union (re.union (str.to.re "lll") (str.to.re "mm")) (re.union (str.to.re "nn") (str.to.re "oo"))) (re.++ (re.union (re.+ (str.to.re "p")) (re.+ (str.to.re "qq"))) (re.++ (re.+ (re.union (str.to.re "r") (str.to.re "sss"))) (re.++ (re.union (re.* (str.to.re "ttt")) (re.* (str.to.re "uuu"))) (re.++ (re.union (re.* (str.to.re "v")) (re.* (str.to.re "ww"))) (re.++ (re.+ (re.+ (str.to.re "x"))) (re.++ (re.* (re.+ (str.to.re "yyy"))) (re.++ (re.+ (re.* (str.to.re "zzz"))) (re.++ (re.union (re.* (str.to.re "AAA")) (re.* (str.to.re "B"))) (re.++ (re.+ (re.+ (str.to.re "CC"))) (re.++ (re.+ (re.* (str.to.re "D"))) (re.++ (re.* (re.* (str.to.re "EE"))) (re.++ (re.union (re.+ (str.to.re "FFF")) (re.+ (str.to.re "GG"))) (re.++ (re.union (re.union (str.to.re "H") (str.to.re "I")) (re.union (str.to.re "JJ") (str.to.re "KK"))) (re.++ (re.* (re.+ (str.to.re "L"))) (re.++ (re.* (re.* (str.to.re "MM"))) (re.++ (re.union (re.+ (str.to.re "N")) (re.+ (str.to.re "OOO"))) (re.++ (re.* (re.union (str.to.re "PP") (str.to.re "Q"))) (re.++ (re.union (re.union (str.to.re "RRR") (str.to.re "S")) (re.union (str.to.re "TT") (str.to.re "UU"))) (re.++ (re.union (re.+ (str.to.re "VV")) (re.+ (str.to.re "WWW"))) (re.++ (re.union (re.union (str.to.re "XX") (str.to.re "Y")) (re.union (str.to.re "Z") (str.to.re "!!!"))) (re.++ (re.+ (re.* (str.to.re """"""""))) (re.++ (re.union (re.* (str.to.re "###")) (re.* (str.to.re "$"))) (re.++ (re.union (re.union (str.to.re "%%") (str.to.re "&&")) (re.union (str.to.re "'''") (str.to.re "((("))) (re.++ (re.* (re.+ (str.to.re ")"))) (re.++ (re.* (re.* (str.to.re "**"))) (re.++ (re.union (re.union (str.to.re "++") (str.to.re ",,,")) (re.union (str.to.re "--") (str.to.re "."))) (re.++ (re.* (re.union (str.to.re "///") (str.to.re "::"))) (re.++ (re.+ (re.+ (str.to.re ";"))) (re.++ (re.+ (re.+ (str.to.re "<"))) (re.++ (re.* (re.union (str.to.re "===") (str.to.re ">"))) (re.++ (re.union (re.* (str.to.re "??")) (re.* (str.to.re "@@"))) (re.++ (re.+ (re.+ (str.to.re "[[["))) (re.++ (re.union (re.+ (str.to.re "\\\\")) (re.+ (str.to.re "]]"))) (re.++ (re.union (re.* (str.to.re "^")) (re.* (str.to.re "__"))) (re.++ (re.+ (re.union (str.to.re "```") (str.to.re "{{"))) (re.++ (re.+ (re.union (str.to.re "|||") (str.to.re "}}"))) (re.++ (re.* (re.+ (str.to.re "~"))) (re.++ (re.union (re.* (str.to.re "000")) (re.* (str.to.re "1"))) (re.++ (re.* (re.* (str.to.re "2"))) (re.++ (re.+ (re.+ (str.to.re "3"))) (re.++ (re.union (re.union (str.to.re "44") (str.to.re "5")) (re.union (str.to.re "666") (str.to.re "7"))) (re.++ (re.+ (re.union (str.to.re "88") (str.to.re "99"))) (re.++ (re.union (re.* (str.to.re "aa")) (re.* (str.to.re "bb"))) (re.++ (re.+ (re.+ (str.to.re "ccc"))) (re.++ (re.+ (re.+ (str.to.re "ddd"))) (re.++ (re.* (re.+ (str.to.re "e"))) (re.++ (re.+ (re.+ (str.to.re "fff"))) (re.++ (re.* (re.union (str.to.re "gg") (str.to.re "hh"))) (re.++ (re.union (re.+ (str.to.re "i")) (re.+ (str.to.re "jjj"))) (re.++ (re.+ (re.union (str.to.re "k") (str.to.re "l"))) (re.++ (re.+ (re.union (str.to.re "mm") (str.to.re "n"))) (re.++ (re.+ (re.* (str.to.re "o"))) (re.++ (re.* (re.* (str.to.re "p"))) (re.++ (re.union (re.union (str.to.re "q") (str.to.re "rrr")) (re.union (str.to.re "ss") (str.to.re "t"))) (re.++ (re.+ (re.union (str.to.re "uu") (str.to.re "vvv"))) (re.++ (re.* (re.* (str.to.re "w"))) (re.++ (re.union (re.* (str.to.re "xx")) (re.* (str.to.re "yyy"))) (re.++ (re.* (re.union (str.to.re "z") (str.to.re "A"))) (re.++ (re.+ (re.union (str.to.re "B") (str.to.re "CC"))) (re.++ (re.union (re.* (str.to.re "D")) (re.* (str.to.re "EE"))) (re.++ (re.* (re.* (str.to.re "FF"))) (re.++ (re.+ (re.+ (str.to.re "G"))) (re.++ (re.+ (re.+ (str.to.re "HHH"))) (re.++ (re.union (re.union (str.to.re "II") (str.to.re "J")) (re.union (str.to.re "KK") (str.to.re "LLL"))) (re.++ (re.+ (re.* (str.to.re "MM"))) (re.++ (re.+ (re.+ (str.to.re "N"))) (re.++ (re.+ (re.union (str.to.re "O") (str.to.re "PP"))) (re.++ (re.+ (re.+ (str.to.re "QQ"))) (re.++ (re.* (re.+ (str.to.re "R"))) (re.++ (re.union (re.* (str.to.re "SS")) (re.* (str.to.re "TT"))) (re.++ (re.union (re.* (str.to.re "UU")) (re.* (str.to.re "VV"))) (re.+ (re.union (str.to.re "WWW") (str.to.re "XXX"))))))))))))))))))))))))))))))))))))))))))))))))))))))))))))))))))))))))))))))))))))))))))))))))))))))))))))))))))))))))))))))))))))))))))
(check-sat)